language ESSENCE' 1.0

letting C_FunctionND be
        [[0, 0, 0, 0, 0, 0, 0, 0, 0, 0, 0, 0, 0, 0, 0, 0, 0, 0, 0, 0, 0, 0; int(0..21)],
         [1, 0, 0, 0, 0, 0, 0, 0, 0, 0, 0, 0, 0, 0, 0, 0, 0, 0, 0, 0, 0, 0; int(0..21)],
         [1, 0, 0, 0, 0, 0, 0, 0, 0, 0, 0, 0, 0, 0, 0, 0, 0, 0, 0, 0, 0, 0; int(0..21)],
         [1, 0, 0, 0, 0, 0, 0, 0, 0, 0, 0, 0, 0, 0, 0, 0, 0, 0, 0, 0, 0, 0; int(0..21)],
         [1, 0, 0, 0, 0, 0, 0, 0, 0, 0, 0, 0, 0, 0, 0, 0, 0, 0, 0, 0, 0, 0; int(0..21)],
         [1, 0, 0, 0, 0, 0, 0, 0, 0, 0, 0, 0, 0, 0, 0, 0, 0, 0, 0, 0, 0, 0; int(0..21)],
         [1, 0, 0, 0, 0, 0, 0, 0, 0, 0, 0, 0, 0, 0, 0, 0, 0, 0, 0, 0, 0, 0; int(0..21)],
         [1, 0, 0, 0, 0, 0, 0, 0, 0, 0, 0, 0, 0, 0, 0, 0, 0, 0, 0, 0, 0, 0; int(0..21)],
         [1, 0, 0, 0, 0, 0, 0, 0, 0, 0, 0, 0, 0, 0, 0, 0, 0, 0, 0, 0, 0, 0; int(0..21)],
         [0, 1, 1, 0, 0, 1, 0, 0, 0, 0, 0, 0, 0, 0, 0, 0, 0, 0, 0, 0, 0, 0; int(0..21)],
         [0, 1, 0, 1, 1, 0, 1, 1, 1, 0, 0, 0, 0, 0, 0, 0, 0, 0, 0, 0, 0, 0; int(0..21)],
         [0, 0, 1, 1, 0, 0, 0, 0, 0, 0, 0, 0, 0, 0, 0, 0, 0, 0, 0, 0, 0, 0; int(0..21)],
         [0, 0, 1, 0, 1, 0, 0, 0, 0, 0, 0, 0, 0, 0, 0, 0, 0, 0, 0, 0, 0, 0; int(0..21)],
         [0, 0, 1, 0, 0, 0, 1, 0, 0, 0, 0, 0, 0, 0, 0, 0, 0, 0, 0, 0, 0, 0; int(0..21)],
         [0, 0, 1, 0, 0, 0, 0, 1, 0, 0, 0, 0, 0, 0, 0, 0, 0, 0, 0, 0, 0, 0; int(0..21)],
         [0, 0, 1, 0, 0, 0, 0, 0, 1, 0, 0, 0, 0, 0, 0, 0, 0, 0, 0, 0, 0, 0; int(0..21)],
         [0, 0, 0, 1, 0, 1, 0, 0, 0, 0, 0, 0, 0, 0, 0, 0, 0, 0, 0, 0, 0, 0; int(0..21)],
         [0, 0, 0, 0, 1, 1, 0, 0, 0, 0, 0, 0, 0, 0, 0, 0, 0, 0, 0, 0, 0, 0; int(0..21)],
         [0, 0, 0, 0, 0, 1, 1, 0, 0, 0, 0, 0, 0, 0, 0, 0, 0, 0, 0, 0, 0, 0; int(0..21)],
         [0, 0, 0, 0, 0, 1, 0, 1, 0, 0, 0, 0, 0, 0, 0, 0, 0, 0, 0, 0, 0, 0; int(0..21)],
         [0, 0, 0, 0, 0, 1, 0, 0, 1, 0, 0, 0, 0, 0, 0, 0, 0, 0, 0, 0, 0, 0; int(0..21)],
         [0, 0, 0, 0, 0, 0, 0, 0, 0, 1, 1, 1, 1, 1, 1, 1, 1, 1, 1, 1, 1, 0; int(0..21)];
             int(0..21)]
$ Visualisation for C_FunctionND
$ 0 0 0 0 0 0 0 0 0 0 0 0 0 0 0 0 0 0 0 0 0 0
$ 1 0 0 0 0 0 0 0 0 0 0 0 0 0 0 0 0 0 0 0 0 0
$ 1 0 0 0 0 0 0 0 0 0 0 0 0 0 0 0 0 0 0 0 0 0
$ 1 0 0 0 0 0 0 0 0 0 0 0 0 0 0 0 0 0 0 0 0 0
$ 1 0 0 0 0 0 0 0 0 0 0 0 0 0 0 0 0 0 0 0 0 0
$ 1 0 0 0 0 0 0 0 0 0 0 0 0 0 0 0 0 0 0 0 0 0
$ 1 0 0 0 0 0 0 0 0 0 0 0 0 0 0 0 0 0 0 0 0 0
$ 1 0 0 0 0 0 0 0 0 0 0 0 0 0 0 0 0 0 0 0 0 0
$ 1 0 0 0 0 0 0 0 0 0 0 0 0 0 0 0 0 0 0 0 0 0
$ 0 1 1 0 0 1 0 0 0 0 0 0 0 0 0 0 0 0 0 0 0 0
$ 0 1 0 1 1 0 1 1 1 0 0 0 0 0 0 0 0 0 0 0 0 0
$ 0 0 1 1 0 0 0 0 0 0 0 0 0 0 0 0 0 0 0 0 0 0
$ 0 0 1 0 1 0 0 0 0 0 0 0 0 0 0 0 0 0 0 0 0 0
$ 0 0 1 0 0 0 1 0 0 0 0 0 0 0 0 0 0 0 0 0 0 0
$ 0 0 1 0 0 0 0 1 0 0 0 0 0 0 0 0 0 0 0 0 0 0
$ 0 0 1 0 0 0 0 0 1 0 0 0 0 0 0 0 0 0 0 0 0 0
$ 0 0 0 1 0 1 0 0 0 0 0 0 0 0 0 0 0 0 0 0 0 0
$ 0 0 0 0 1 1 0 0 0 0 0 0 0 0 0 0 0 0 0 0 0 0
$ 0 0 0 0 0 1 1 0 0 0 0 0 0 0 0 0 0 0 0 0 0 0
$ 0 0 0 0 0 1 0 1 0 0 0 0 0 0 0 0 0 0 0 0 0 0
$ 0 0 0 0 0 1 0 0 1 0 0 0 0 0 0 0 0 0 0 0 0 0
$ 0 0 0 0 0 0 0 0 0 1 1 1 1 1 1 1 1 1 1 1 1 0

letting J_FunctionND be
        [[0, 1, 2, 3, 4, 5, 6, 7, 8, 9, 10, 11, 12, 13, 14, 15, 16, 17, 18, 19, 20, 21; int(0..21)],
         [1, 1, 9, 10, 10, 9, 10, 10, 10, 9, 10, 21, 21, 21, 21, 21, 21, 21, 21, 21, 21, 21; int(0..21)],
         [2, 9, 2, 11, 12, 9, 13, 14, 15, 9, 21, 11, 12, 13, 14, 15, 21, 21, 21, 21, 21, 21; int(0..21)],
         [3, 10, 11, 3, 10, 16, 10, 10, 10, 21, 10, 11, 21, 21, 21, 21, 16, 21, 21, 21, 21, 21; int(0..21)],
         [4, 10, 12, 10, 4, 17, 10, 10, 10, 21, 10, 21, 12, 21, 21, 21, 21, 17, 21, 21, 21, 21; int(0..21)],
         [5, 9, 9, 16, 17, 5, 18, 19, 20, 9, 21, 21, 21, 21, 21, 21, 16, 17, 18, 19, 20, 21; int(0..21)],
         [6, 10, 13, 10, 10, 18, 6, 10, 10, 21, 10, 21, 21, 13, 21, 21, 21, 21, 18, 21, 21, 21; int(0..21)],
         [7, 10, 14, 10, 10, 19, 10, 7, 10, 21, 10, 21, 21, 21, 14, 21, 21, 21, 21, 19, 21, 21; int(0..21)],
         [8, 10, 15, 10, 10, 20, 10, 10, 8, 21, 10, 21, 21, 21, 21, 15, 21, 21, 21, 21, 20, 21; int(0..21)],
         [9, 9, 9, 21, 21, 9, 21, 21, 21, 9, 21, 21, 21, 21, 21, 21, 21, 21, 21, 21, 21, 21; int(0..21)],
         [10, 10, 21, 10, 10, 21, 10, 10, 10, 21, 10, 21, 21, 21, 21, 21, 21, 21, 21, 21, 21, 21; int(0..21)],
         [11, 21, 11, 11, 21, 21, 21, 21, 21, 21, 21, 11, 21, 21, 21, 21, 21, 21, 21, 21, 21, 21; int(0..21)],
         [12, 21, 12, 21, 12, 21, 21, 21, 21, 21, 21, 21, 12, 21, 21, 21, 21, 21, 21, 21, 21, 21; int(0..21)],
         [13, 21, 13, 21, 21, 21, 13, 21, 21, 21, 21, 21, 21, 13, 21, 21, 21, 21, 21, 21, 21, 21; int(0..21)],
         [14, 21, 14, 21, 21, 21, 21, 14, 21, 21, 21, 21, 21, 21, 14, 21, 21, 21, 21, 21, 21, 21; int(0..21)],
         [15, 21, 15, 21, 21, 21, 21, 21, 15, 21, 21, 21, 21, 21, 21, 15, 21, 21, 21, 21, 21, 21; int(0..21)],
         [16, 21, 21, 16, 21, 16, 21, 21, 21, 21, 21, 21, 21, 21, 21, 21, 16, 21, 21, 21, 21, 21; int(0..21)],
         [17, 21, 21, 21, 17, 17, 21, 21, 21, 21, 21, 21, 21, 21, 21, 21, 21, 17, 21, 21, 21, 21; int(0..21)],
         [18, 21, 21, 21, 21, 18, 18, 21, 21, 21, 21, 21, 21, 21, 21, 21, 21, 21, 18, 21, 21, 21; int(0..21)],
         [19, 21, 21, 21, 21, 19, 21, 19, 21, 21, 21, 21, 21, 21, 21, 21, 21, 21, 21, 19, 21, 21; int(0..21)],
         [20, 21, 21, 21, 21, 20, 21, 21, 20, 21, 21, 21, 21, 21, 21, 21, 21, 21, 21, 21, 20, 21; int(0..21)],
         [21, 21, 21, 21, 21, 21, 21, 21, 21, 21, 21, 21, 21, 21, 21, 21, 21, 21, 21, 21, 21, 21; int(0..21)];
             int(0..21)]
$ Visualisation for J_FunctionND
$  0  1  2  3  4  5  6  7  8  9 10 11 12 13 14 15 16 17 18 19 20 21
$  1  1  9 10 10  9 10 10 10  9 10 21 21 21 21 21 21 21 21 21 21 21
$  2  9  2 11 12  9 13 14 15  9 21 11 12 13 14 15 21 21 21 21 21 21
$  3 10 11  3 10 16 10 10 10 21 10 11 21 21 21 21 16 21 21 21 21 21
$  4 10 12 10  4 17 10 10 10 21 10 21 12 21 21 21 21 17 21 21 21 21
$  5  9  9 16 17  5 18 19 20  9 21 21 21 21 21 21 16 17 18 19 20 21
$  6 10 13 10 10 18  6 10 10 21 10 21 21 13 21 21 21 21 18 21 21 21
$  7 10 14 10 10 19 10  7 10 21 10 21 21 21 14 21 21 21 21 19 21 21
$  8 10 15 10 10 20 10 10  8 21 10 21 21 21 21 15 21 21 21 21 20 21
$  9  9  9 21 21  9 21 21 21  9 21 21 21 21 21 21 21 21 21 21 21 21
$ 10 10 21 10 10 21 10 10 10 21 10 21 21 21 21 21 21 21 21 21 21 21
$ 11 21 11 11 21 21 21 21 21 21 21 11 21 21 21 21 21 21 21 21 21 21
$ 12 21 12 21 12 21 21 21 21 21 21 21 12 21 21 21 21 21 21 21 21 21
$ 13 21 13 21 21 21 13 21 21 21 21 21 21 13 21 21 21 21 21 21 21 21
$ 14 21 14 21 21 21 21 14 21 21 21 21 21 21 14 21 21 21 21 21 21 21
$ 15 21 15 21 21 21 21 21 15 21 21 21 21 21 21 15 21 21 21 21 21 21
$ 16 21 21 16 21 16 21 21 21 21 21 21 21 21 21 21 16 21 21 21 21 21
$ 17 21 21 21 17 17 21 21 21 21 21 21 21 21 21 21 21 17 21 21 21 21
$ 18 21 21 21 21 18 18 21 21 21 21 21 21 21 21 21 21 21 18 21 21 21
$ 19 21 21 21 21 19 21 19 21 21 21 21 21 21 21 21 21 21 21 19 21 21
$ 20 21 21 21 21 20 21 21 20 21 21 21 21 21 21 21 21 21 21 21 20 21
$ 21 21 21 21 21 21 21 21 21 21 21 21 21 21 21 21 21 21 21 21 21 21

letting M_FunctionND be
        [[0, 0, 0, 0, 0, 0, 0, 0, 0, 0, 0, 0, 0, 0, 0, 0, 0, 0, 0, 0, 0, 0; int(0..21)],
         [0, 1, 0, 0, 0, 0, 0, 0, 0, 1, 1, 0, 0, 0, 0, 0, 0, 0, 0, 0, 0, 1; int(0..21)],
         [0, 0, 2, 0, 0, 0, 0, 0, 0, 2, 0, 2, 2, 2, 2, 2, 0, 0, 0, 0, 0, 2; int(0..21)],
         [0, 0, 0, 3, 0, 0, 0, 0, 0, 0, 3, 3, 0, 0, 0, 0, 3, 0, 0, 0, 0, 3; int(0..21)],
         [0, 0, 0, 0, 4, 0, 0, 0, 0, 0, 4, 0, 4, 0, 0, 0, 0, 4, 0, 0, 0, 4; int(0..21)],
         [0, 0, 0, 0, 0, 5, 0, 0, 0, 5, 0, 0, 0, 0, 0, 0, 5, 5, 5, 5, 5, 5; int(0..21)],
         [0, 0, 0, 0, 0, 0, 6, 0, 0, 0, 6, 0, 0, 6, 0, 0, 0, 0, 6, 0, 0, 6; int(0..21)],
         [0, 0, 0, 0, 0, 0, 0, 7, 0, 0, 7, 0, 0, 0, 7, 0, 0, 0, 0, 7, 0, 7; int(0..21)],
         [0, 0, 0, 0, 0, 0, 0, 0, 8, 0, 8, 0, 0, 0, 0, 8, 0, 0, 0, 0, 8, 8; int(0..21)],
         [0, 1, 2, 0, 0, 5, 0, 0, 0, 9, 1, 2, 2, 2, 2, 2, 5, 5, 5, 5, 5, 9; int(0..21)],
         [0, 1, 0, 3, 4, 0, 6, 7, 8, 1, 10, 3, 4, 6, 7, 8, 3, 4, 6, 7, 8, 10; int(0..21)],
         [0, 0, 2, 3, 0, 0, 0, 0, 0, 2, 3, 11, 2, 2, 2, 2, 3, 0, 0, 0, 0, 11; int(0..21)],
         [0, 0, 2, 0, 4, 0, 0, 0, 0, 2, 4, 2, 12, 2, 2, 2, 0, 4, 0, 0, 0, 12; int(0..21)],
         [0, 0, 2, 0, 0, 0, 6, 0, 0, 2, 6, 2, 2, 13, 2, 2, 0, 0, 6, 0, 0, 13; int(0..21)],
         [0, 0, 2, 0, 0, 0, 0, 7, 0, 2, 7, 2, 2, 2, 14, 2, 0, 0, 0, 7, 0, 14; int(0..21)],
         [0, 0, 2, 0, 0, 0, 0, 0, 8, 2, 8, 2, 2, 2, 2, 15, 0, 0, 0, 0, 8, 15; int(0..21)],
         [0, 0, 0, 3, 0, 5, 0, 0, 0, 5, 3, 3, 0, 0, 0, 0, 16, 5, 5, 5, 5, 16; int(0..21)],
         [0, 0, 0, 0, 4, 5, 0, 0, 0, 5, 4, 0, 4, 0, 0, 0, 5, 17, 5, 5, 5, 17; int(0..21)],
         [0, 0, 0, 0, 0, 5, 6, 0, 0, 5, 6, 0, 0, 6, 0, 0, 5, 5, 18, 5, 5, 18; int(0..21)],
         [0, 0, 0, 0, 0, 5, 0, 7, 0, 5, 7, 0, 0, 0, 7, 0, 5, 5, 5, 19, 5, 19; int(0..21)],
         [0, 0, 0, 0, 0, 5, 0, 0, 8, 5, 8, 0, 0, 0, 0, 8, 5, 5, 5, 5, 20, 20; int(0..21)],
         [0, 1, 2, 3, 4, 5, 6, 7, 8, 9, 10, 11, 12, 13, 14, 15, 16, 17, 18, 19, 20, 21; int(0..21)];
             int(0..21)]
$ Visualisation for M_FunctionND
$  0  0  0  0  0  0  0  0  0  0  0  0  0  0  0  0  0  0  0  0  0  0
$  0  1  0  0  0  0  0  0  0  1  1  0  0  0  0  0  0  0  0  0  0  1
$  0  0  2  0  0  0  0  0  0  2  0  2  2  2  2  2  0  0  0  0  0  2
$  0  0  0  3  0  0  0  0  0  0  3  3  0  0  0  0  3  0  0  0  0  3
$  0  0  0  0  4  0  0  0  0  0  4  0  4  0  0  0  0  4  0  0  0  4
$  0  0  0  0  0  5  0  0  0  5  0  0  0  0  0  0  5  5  5  5  5  5
$  0  0  0  0  0  0  6  0  0  0  6  0  0  6  0  0  0  0  6  0  0  6
$  0  0  0  0  0  0  0  7  0  0  7  0  0  0  7  0  0  0  0  7  0  7
$  0  0  0  0  0  0  0  0  8  0  8  0  0  0  0  8  0  0  0  0  8  8
$  0  1  2  0  0  5  0  0  0  9  1  2  2  2  2  2  5  5  5  5  5  9
$  0  1  0  3  4  0  6  7  8  1 10  3  4  6  7  8  3  4  6  7  8 10
$  0  0  2  3  0  0  0  0  0  2  3 11  2  2  2  2  3  0  0  0  0 11
$  0  0  2  0  4  0  0  0  0  2  4  2 12  2  2  2  0  4  0  0  0 12
$  0  0  2  0  0  0  6  0  0  2  6  2  2 13  2  2  0  0  6  0  0 13
$  0  0  2  0  0  0  0  7  0  2  7  2  2  2 14  2  0  0  0  7  0 14
$  0  0  2  0  0  0  0  0  8  2  8  2  2  2  2 15  0  0  0  0  8 15
$  0  0  0  3  0  5  0  0  0  5  3  3  0  0  0  0 16  5  5  5  5 16
$  0  0  0  0  4  5  0  0  0  5  4  0  4  0  0  0  5 17  5  5  5 17
$  0  0  0  0  0  5  6  0  0  5  6  0  0  6  0  0  5  5 18  5  5 18
$  0  0  0  0  0  5  0  7  0  5  7  0  0  0  7  0  5  5  5 19  5 19
$  0  0  0  0  0  5  0  0  8  5  8  0  0  0  0  8  5  5  5  5 20 20
$  0  1  2  3  4  5  6  7  8  9 10 11 12 13 14 15 16 17 18 19 20 21

letting R_Function1D be [0, 1, 1, 1, 1, 1, 1, 1, 1, 2, 2, 2, 2, 2, 2, 2, 2, 2, 2, 2, 2, 3; int(0..21)]
